
  22   10
  10   10   10   10   10   10   10   10   10   10

   0   0   0   0   0   0   0   0   0   0   0   4 2 7 10 13 
   7  10  10  10  10  10  10  10  10  10  10   3 21 20 3 
  10  10  10  10  10  10  10  10  10  10  10   1 4 
   2  10  10  10  10  10  10  10  10  10  10   1 5 
   2  10  10  10  10  10  10  10  10  10  10   2 19 6 
   3  10  10  10  10  10  10  10  10  10  10   2 18 8 
   9  10  10  10  10  10  10  10  10  10  10   5 18 17 16 15 11 
   5  10  10  10  10  10  10  10  10  10  10   3 17 16 9 
   4  10  10  10  10  10  10  10  10  10  10   2 15 11 
   9  10  10  10  10  10  10  10  10  10  10   2 21 19 
   6  10  10  10  10  10  10  10  10  10  10   1 12 
   7  10  10  10  10  10  10  10  10  10  10   1 14 
   5  10  10  10  10  10  10  10  10  10  10   1 20 
   4  10  10  10  10  10  10  10  10  10  10   1 22
   6  10  10  10  10  10  10  10  10  10  10   1 22
   1  10  10  10  10  10  10  10  10  10  10   1 22
  10  10  10  10  10  10  10  10  10  10  10   1 22
  10  10  10  10  10  10  10  10  10  10  10   1 22
  10  10  10  10  10  10  10  10  10  10  10   1 22
   3  10  10  10  10  10  10  10  10  10  10   1 22
  10  10  10  10  10  10  10  10  10  10  10   1 22
   0   0   0   0   0   0   0   0   0   0   0   0 
